RAW/CMTY/fspd-long/CMT13Y.vrp_seed-5.out
1542.863201	207.699	307.365
