RAW/CMTY/fspd-long/CMT13Y.vrp_seed-5.sol
Route #1: 88 82 111 86 87 95 102 106 105 120
Route #2: 65 61 62 64 66 63 60 56 58 55
Route #3: 73 71 74 72 75 78 80 79 77 76 68
Route #4: 37 44 46 49 50 51 48 47 41 38
Route #5: 85 84 7 9 10 11 15 14 13 12 8 108
Route #6: 112 117 113 83 6 5 4 3 1 2 81 119
Route #7: 39 42 45 43 40 59 57 54 53 52
Route #8: 107 104 103 69 70 67 98 110 116 100 99 101
Route #9: 17 16 19 25 22 24 27 28 23 20
Route #10: 96 93 94 97 115 109 114 118 18 90 91 89 92
Route #11: 21 26 32 35 31 30 33 34 36 29
Cost 1542.863201